\ENCODING=ISO-8859-1
\Problem name: CKP

Maximize
 obj: x1 + x2 + x3 + x4 + x5 + x6 + x7 + x8 + x9 + x10 + x11 + x12 + x13 + x14
      + x15 + x16 + x17 + x18 + x19 + x20 + x21 + x22 + x23 + x24 + x25 + x26
      + x27 + x28 + x29 + x30 + x31 + x32 + x33 + x34 + x35 + x36 + x37 + x38
      + x39 + x40 + x41 + x42 + x43 + x44 + x45 + x46 + x47 + x48 + x49 + x50
Subject To
 c1: 14435 x1 + 14436 x2 + 14437 x3 + 14471 x4 + 14472 x5 + 14473 x6 + 14507 x7
     + 14508 x8 + 14509 x9 + 15082 x10 + 15083 x11 + 15084 x12 + 15118 x13
     + 15119 x14 + 15120 x15 + 15154 x16 + 15155 x17 + 15156 x18 + 15729 x19
     + 15730 x20 + 15731 x21 + 15765 x22 + 15766 x23 + 14435 x24 + 14471 x25
     + 14472 x26 + 14473 x27 + 14508 x28 + 15082 x29 + 15083 x30 + 15118 x31
     + 15120 x32 + 15154 x33 + 15155 x34 + 15156 x35 + 15729 x36 + 15730 x37
     + 15765 x38 + 15767 x39 + 15801 x40 + 15802 x41 + 15803 x42 + 28188 x43
     + 28189 x44 + 28224 x45 + 28225 x46 + 28226 x47 + 28260 x48 + 28261 x49
     + 28835 x50 >= 400894
 c2: 14435 x1 + 14436 x2 + 14437 x3 + 14471 x4 + 14472 x5 + 14473 x6 + 14507 x7
     + 14508 x8 + 14509 x9 + 15082 x10 + 15083 x11 + 15084 x12 + 15118 x13
     + 15119 x14 + 15120 x15 + 15154 x16 + 15155 x17 + 15156 x18 + 15729 x19
     + 15730 x20 + 15731 x21 + 15765 x22 + 15766 x23 + 14435 x24 + 14471 x25
     + 14472 x26 + 14473 x27 + 14508 x28 + 15082 x29 + 15083 x30 + 15118 x31
     + 15120 x32 + 15154 x33 + 15155 x34 + 15156 x35 + 15729 x36 + 15730 x37
     + 15765 x38 + 15767 x39 + 15801 x40 + 15802 x41 + 15803 x42 + 28188 x43
     + 28189 x44 + 28224 x45 + 28225 x46 + 28226 x47 + 28260 x48 + 28261 x49
     + 28835 x50 <= 400895
Bounds
 0 <= x1 <= 1
 0 <= x2 <= 1
 0 <= x3 <= 1
 0 <= x4 <= 1
 0 <= x5 <= 1
 0 <= x6 <= 1
 0 <= x7 <= 1
 0 <= x8 <= 1
 0 <= x9 <= 1
 0 <= x10 <= 1
 0 <= x11 <= 1
 0 <= x12 <= 1
 0 <= x13 <= 1
 0 <= x14 <= 1
 0 <= x15 <= 1
 0 <= x16 <= 1
 0 <= x17 <= 1
 0 <= x18 <= 1
 0 <= x19 <= 1
 0 <= x20 <= 1
 0 <= x21 <= 1
 0 <= x22 <= 1
 0 <= x23 <= 1
 0 <= x24 <= 1
 0 <= x25 <= 1
 0 <= x26 <= 1
 0 <= x27 <= 1
 0 <= x28 <= 1
 0 <= x29 <= 1
 0 <= x30 <= 1
 0 <= x31 <= 1
 0 <= x32 <= 1
 0 <= x33 <= 1
 0 <= x34 <= 1
 0 <= x35 <= 1
 0 <= x36 <= 1
 0 <= x37 <= 1
 0 <= x38 <= 1
 0 <= x39 <= 1
 0 <= x40 <= 1
 0 <= x41 <= 1
 0 <= x42 <= 1
 0 <= x43 <= 1
 0 <= x44 <= 1
 0 <= x45 <= 1
 0 <= x46 <= 1
 0 <= x47 <= 1
 0 <= x48 <= 1
 0 <= x49 <= 1
 0 <= x50 <= 1
Binaries
 x1  x2  x3  x4  x5  x6  x7  x8  x9  x10  x11  x12  x13  x14  x15  x16  x17 
 x18  x19  x20  x21  x22  x23  x24  x25  x26  x27  x28  x29  x30  x31  x32 
 x33  x34  x35  x36  x37  x38  x39  x40  x41  x42  x43  x44  x45  x46  x47 
 x48  x49  x50 
End
